v1 = 5;
v2 = 5;
vertexWeights = [-45, -45, -45, -45, -45, -45, -90, -90, -90, -90, -90, -45, -90, -90, -90, -90, -90, -45, -90, -90, -36.138621999185304, -90, -65.97347952018296, -45, -90, -31.144823004794873, -90, -90, -90, -45, -90, -90, -90, -90, -90];
edgeWeights = [| 0, 0, 0, 0, -15.0, 0, 0, 0, 0, 0, -15.0, 0, 0, 0, 0, 0, -15.0, 0, 0, 0, 0, 0, -15.0, 0, 0, 0, 0, 0, -15.0, 0, 0, 0, 0, 0, -15.0
| 0, 0, 0, 0, 0, 0, 0, 0, 0, 0, 0, 0, 0, 0, 0, 0, 0, 0, 0, 0, 0, 0, 0, 0, 0, 0, 0, 0, 0, 0, 0, 0, 0, 0, 0
| 0, 0, 0, -15.0, 0, 0, 0, 0, 0, -15.0, 0, 0, 0, 0, 0, -15.0, 0, 0, 0, 0, 0, -15.0, 0, 0, 0, 0, 0, -15.0, 0, 0, 0, 0, 0, -15.0, 0
| 0, 0, -15.0, 0, 0, 0, 0, 0, -15.0, 0, 0, 0, 0, 0, -15.0, 0, 0, 0, 0, 0, -15.0, 0, 0, 0, 0, 0, -15.0, 0, 0, 0, 0, 0, -15.0, 0, 0
| -15.0, 0, 0, 0, 0, 0, -15.0, 0, 0, 0, 0, 0, -15.0, 0, 0, 0, 0, 0, -15.0, 0, 0, 0, 0, 0, -15.0, 0, 0, 0, 0, 0, -15.0, 0, 0, 0, 0
| 0, 0, 0, 0, 0, 0, 0, 0, 0, 0, 0, -7.5, -7.5, -7.5, -7.5, -7.5, -7.5, 0, 0, 0, 0, 0, 0, 0, 0, 0, 0, 0, 0, 0, 0, 0, 0, 0, 0
| 0, -0.0, -0.0, -0.0, -15.0, 0, 0, 0, 0, 0, 0, -7.5, 0, -7.5, -0.0, -0.0, -7.5, -0.0, 0, 0, 0, 0, -15.0, -0.0, 0, 0, 0, 0, -15.0, -0.0, 0, 0, 0, 0, -15.0
| -0.0, 0, -0.0, -0.0, -0.0, 0, 0, 0, 0, 0, 0, -7.5, -0.0, 0, -0.0, -0.0, -0.0, -0.0, 0, 0, 0, 0, 0, -0.0, 0, 0, 0, 0, 0, -0.0, 0, 0, 0, 0, 0
| -0.0, -0.0, 0, -15.0, -0.0, 0, 0, 0, 0, 0, 0, -7.5, -0.0, -7.5, 0, -7.5, -0.0, -0.0, 0, 0, 0, -15.0, 0, -0.0, 0, 0, 0, -15.0, 0, -0.0, 0, 0, 0, -15.0, 0
| -0.0, -0.0, -15.0, 0, -0.0, 0, 0, 0, 0, 0, 0, -7.5, -0.0, -7.5, -7.5, 0, -0.0, -0.0, 0, 0, -15.0, 0, 0, -0.0, 0, 0, -15.0, 0, 0, -0.0, 0, 0, -15.0, 0, 0
| -15.0, -0.0, -0.0, -0.0, 0, 0, 0, 0, 0, 0, 0, -7.5, -7.5, -7.5, -0.0, -0.0, 0, -0.0, -15.0, 0, 0, 0, 0, -0.0, -15.0, 0, 0, 0, 0, -0.0, -15.0, 0, 0, 0, 0
| 0, 0, 0, 0, 0, -7.5, -7.5, -7.5, -7.5, -7.5, -7.5, 0, 0, 0, 0, 0, 0, -7.5, -7.5, -7.5, -7.5, -7.5, -7.5, 0, 0, 0, 0, 0, 0, 0, 0, 0, 0, 0, 0
| 0, -0.0, -0.0, -0.0, -15.0, -7.5, 0, -0.0, -7.5, -0.0, -7.5, 0, 0, 0, 0, 0, 0, -7.5, 0, -0.0, -7.5, -0.0, -7.5, -0.0, 0, 0, 0, 0, -15.0, -0.0, 0, 0, 0, 0, -15.0
| -0.0, 0, -0.0, -0.0, -0.0, -7.5, -7.5, 0, -7.5, -0.0, -0.0, 0, 0, 0, 0, 0, 0, -7.5, -7.5, 0, -7.5, -0.0, -0.0, -0.0, 0, 0, 0, 0, 0, -0.0, 0, 0, 0, 0, 0
| -0.0, -0.0, 0, -15.0, -0.0, -7.5, -7.5, -0.0, 0, -7.5, -0.0, 0, 0, 0, 0, 0, 0, -7.5, -7.5, -0.0, 0, -7.5, -0.0, -0.0, 0, 0, 0, -15.0, 0, -0.0, 0, 0, 0, -15.0, 0
| -0.0, -0.0, -15.0, 0, -0.0, -7.5, -7.5, -0.0, -7.5, 0, -0.0, 0, 0, 0, 0, 0, 0, -7.5, -7.5, -0.0, -7.5, 0, -0.0, -0.0, 0, 0, -15.0, 0, 0, -0.0, 0, 0, -15.0, 0, 0
| -15.0, -0.0, -0.0, -0.0, 0, -7.5, -7.5, -0.0, -7.5, -0.0, 0, 0, 0, 0, 0, 0, 0, -7.5, -7.5, -0.0, -7.5, -0.0, 0, -0.0, -15.0, 0, 0, 0, 0, -0.0, -15.0, 0, 0, 0, 0
| 0, 0, 0, 0, 0, 0, 0, 0, 0, 0, 0, -7.5, -7.5, -7.5, -7.5, -7.5, -7.5, 0, 0, 0, 0, 0, 0, 0, 0, 0, 0, 0, 0, -7.5, -7.5, -7.5, -7.5, -7.5, -7.5
| 0, -0.0, -0.0, -0.0, -15.0, -0.0, 0, 0, 0, 0, -15.0, -7.5, 0, -7.5, -0.0, -0.0, -7.5, 0, 0, 0, 0, 0, 0, -0.0, 0, 0, 0, 0, -15.0, -7.5, 0, -7.5, -0.0, -0.0, -7.5
| -0.0, 0, -0.0, -0.0, -0.0, -0.0, 0, 0, 0, 0, 0, -7.5, -0.0, 0, -0.0, -0.0, -7.5, 0, 0, 0, 0, 0, 0, -0.0, 0, 0, 0, 0, 0, -7.5, -0.0, 0, -0.0, -0.0, -7.5
| -0.0, -0.0, 0, -15.0, -0.0, -0.0, 0, 0, 0, -15.0, 0, -7.5, -0.0, -7.5, 0, -7.5, -7.5, 0, 0, 0, 0, 0, 0, -0.0, 0, 0, 0, -15.0, 0, -7.5, -0.0, -7.5, 0, -7.5, -7.5
| -0.0, -0.0, -15.0, 0, -0.0, -0.0, 0, 0, -15.0, 0, 0, -7.5, -0.0, -7.5, -7.5, 0, -7.5, 0, 0, 0, 0, 0, 0, -0.0, 0, 0, -15.0, 0, 0, -7.5, -0.0, -7.5, -7.5, 0, -7.5
| -15.0, -0.0, -0.0, -0.0, 0, -0.0, -15.0, 0, 0, 0, 0, -7.5, -7.5, -7.5, -0.0, -0.0, 0, 0, 0, 0, 0, 0, 0, -0.0, -15.0, 0, 0, 0, 0, -7.5, -7.5, -7.5, -0.0, -0.0, 0
| 0, 0, 0, 0, 0, 0, 0, 0, 0, 0, 0, 0, 0, 0, 0, 0, 0, 0, 0, 0, 0, 0, 0, 0, 0, 0, 0, 0, 0, 0, 0, 0, 0, 0, 0
| 0, -0.0, -0.0, -0.0, -15.0, -0.0, 0, 0, 0, 0, -15.0, -0.0, 0, 0, 0, 0, -15.0, -0.0, 0, 0, 0, 0, -15.0, 0, 0, 0, 0, 0, 0, -0.0, 0, 0, 0, 0, -15.0
| -0.0, 0, -0.0, -0.0, -0.0, -0.0, 0, 0, 0, 0, 0, -0.0, 0, 0, 0, 0, 0, -0.0, 0, 0, 0, 0, 0, 0, 0, 0, 0, 0, 0, -0.0, 0, 0, 0, 0, 0
| -0.0, -0.0, 0, -15.0, -0.0, -0.0, 0, 0, 0, -15.0, 0, -0.0, 0, 0, 0, -15.0, 0, -0.0, 0, 0, 0, -15.0, 0, 0, 0, 0, 0, 0, 0, -0.0, 0, 0, 0, -15.0, 0
| -0.0, -0.0, -15.0, 0, -0.0, -0.0, 0, 0, -15.0, 0, 0, -0.0, 0, 0, -15.0, 0, 0, -0.0, 0, 0, -15.0, 0, 0, 0, 0, 0, 0, 0, 0, -0.0, 0, 0, -15.0, 0, 0
| -15.0, -0.0, -0.0, -0.0, 0, -0.0, -15.0, 0, 0, 0, 0, -0.0, -15.0, 0, 0, 0, 0, -0.0, -15.0, 0, 0, 0, 0, 0, 0, 0, 0, 0, 0, -0.0, -15.0, 0, 0, 0, 0
| 0, 0, 0, 0, 0, 0, 0, 0, 0, 0, 0, 0, 0, 0, 0, 0, 0, -7.5, -7.5, -7.5, -7.5, -7.5, -7.5, 0, 0, 0, 0, 0, 0, 0, 0, 0, 0, 0, 0
| 0, -0.0, -0.0, -0.0, -15.0, -0.0, 0, 0, 0, 0, -15.0, -0.0, 0, 0, 0, 0, -15.0, -7.5, 0, -0.0, -7.5, -0.0, -7.5, -0.0, 0, 0, 0, 0, -15.0, 0, 0, 0, 0, 0, 0
| -0.0, 0, -0.0, -0.0, -0.0, -0.0, 0, 0, 0, 0, 0, -0.0, 0, 0, 0, 0, 0, -7.5, -0.0, 0, -7.5, -0.0, -0.0, -0.0, 0, 0, 0, 0, 0, 0, 0, 0, 0, 0, 0
| -0.0, -0.0, 0, -15.0, -0.0, -0.0, 0, 0, 0, -15.0, 0, -0.0, 0, 0, 0, -15.0, 0, -7.5, -0.0, -0.0, 0, -7.5, -0.0, -0.0, 0, 0, 0, -15.0, 0, 0, 0, 0, 0, 0, 0
| -0.0, -0.0, -15.0, 0, -0.0, -0.0, 0, 0, -15.0, 0, 0, -0.0, 0, 0, -15.0, 0, 0, -7.5, -0.0, -0.0, -7.5, 0, -0.0, -0.0, 0, 0, -15.0, 0, 0, 0, 0, 0, 0, 0, 0
| -15.0, -0.0, -0.0, -0.0, 0, -0.0, -15.0, 0, 0, 0, 0, -0.0, -15.0, 0, 0, 0, 0, -7.5, -7.5, -0.0, -7.5, -0.0, 0, -0.0, -15.0, 0, 0, 0, 0, 0, 0, 0, 0, 0, 0 |];
adjacent = [| 0, 1, 1, 1, 1, 1, 0, 1, 1, 1, 1, 1, 0, 1, 1, 1, 1, 1, 0, 1, 1, 1, 1, 1, 0, 1, 1, 1, 1, 1, 0, 1, 1, 1, 1
| 1, 0, 1, 1, 1, 1, 1, 0, 1, 1, 1, 1, 1, 0, 1, 1, 1, 1, 1, 0, 1, 1, 1, 1, 1, 0, 1, 1, 1, 1, 1, 0, 1, 1, 1
| 1, 1, 0, 1, 1, 1, 1, 1, 0, 1, 1, 1, 1, 1, 0, 1, 1, 1, 1, 1, 0, 1, 1, 1, 1, 1, 0, 1, 1, 1, 1, 1, 0, 1, 1
| 1, 1, 1, 0, 1, 1, 1, 1, 1, 0, 1, 1, 1, 1, 1, 0, 1, 1, 1, 1, 1, 0, 1, 1, 1, 1, 1, 0, 1, 1, 1, 1, 1, 0, 1
| 1, 1, 1, 1, 0, 1, 1, 1, 1, 1, 0, 1, 1, 1, 1, 1, 0, 1, 1, 1, 1, 1, 0, 1, 1, 1, 1, 1, 0, 1, 1, 1, 1, 1, 0
| 1, 1, 1, 1, 1, 0, 0, 0, 0, 0, 0, 1, 1, 1, 1, 1, 1, 1, 1, 1, 1, 1, 1, 1, 1, 1, 1, 1, 1, 1, 1, 1, 1, 1, 1
| 0, 1, 1, 1, 1, 0, 0, 0, 0, 0, 0, 1, 0, 1, 1, 1, 1, 1, 0, 1, 1, 1, 1, 1, 0, 1, 1, 1, 1, 1, 0, 1, 1, 1, 1
| 1, 0, 1, 1, 1, 0, 0, 0, 0, 0, 0, 1, 1, 0, 1, 1, 1, 1, 1, 0, 1, 1, 1, 1, 1, 0, 1, 1, 1, 1, 1, 0, 1, 1, 1
| 1, 1, 0, 1, 1, 0, 0, 0, 0, 0, 0, 1, 1, 1, 0, 1, 1, 1, 1, 1, 0, 1, 1, 1, 1, 1, 0, 1, 1, 1, 1, 1, 0, 1, 1
| 1, 1, 1, 0, 1, 0, 0, 0, 0, 0, 0, 1, 1, 1, 1, 0, 1, 1, 1, 1, 1, 0, 1, 1, 1, 1, 1, 0, 1, 1, 1, 1, 1, 0, 1
| 1, 1, 1, 1, 0, 0, 0, 0, 0, 0, 0, 1, 1, 1, 1, 1, 0, 1, 1, 1, 1, 1, 0, 1, 1, 1, 1, 1, 0, 1, 1, 1, 1, 1, 0
| 1, 1, 1, 1, 1, 1, 1, 1, 1, 1, 1, 0, 0, 0, 0, 0, 0, 1, 1, 1, 1, 1, 1, 1, 1, 1, 1, 1, 1, 1, 1, 1, 1, 1, 1
| 0, 1, 1, 1, 1, 1, 0, 1, 1, 1, 1, 0, 0, 0, 0, 0, 0, 1, 0, 1, 1, 1, 1, 1, 0, 1, 1, 1, 1, 1, 0, 1, 1, 1, 1
| 1, 0, 1, 1, 1, 1, 1, 0, 1, 1, 1, 0, 0, 0, 0, 0, 0, 1, 1, 0, 1, 1, 1, 1, 1, 0, 1, 1, 1, 1, 1, 0, 1, 1, 1
| 1, 1, 0, 1, 1, 1, 1, 1, 0, 1, 1, 0, 0, 0, 0, 0, 0, 1, 1, 1, 0, 1, 1, 1, 1, 1, 0, 1, 1, 1, 1, 1, 0, 1, 1
| 1, 1, 1, 0, 1, 1, 1, 1, 1, 0, 1, 0, 0, 0, 0, 0, 0, 1, 1, 1, 1, 0, 1, 1, 1, 1, 1, 0, 1, 1, 1, 1, 1, 0, 1
| 1, 1, 1, 1, 0, 1, 1, 1, 1, 1, 0, 0, 0, 0, 0, 0, 0, 1, 1, 1, 1, 1, 0, 1, 1, 1, 1, 1, 0, 1, 1, 1, 1, 1, 0
| 1, 1, 1, 1, 1, 1, 1, 1, 1, 1, 1, 1, 1, 1, 1, 1, 1, 0, 0, 0, 0, 0, 0, 1, 1, 1, 1, 1, 1, 1, 1, 1, 1, 1, 1
| 0, 1, 1, 1, 1, 1, 0, 1, 1, 1, 1, 1, 0, 1, 1, 1, 1, 0, 0, 0, 0, 0, 0, 1, 0, 1, 1, 1, 1, 1, 0, 1, 1, 1, 1
| 1, 0, 1, 1, 1, 1, 1, 0, 1, 1, 1, 1, 1, 0, 1, 1, 1, 0, 0, 0, 0, 0, 0, 1, 1, 0, 1, 1, 1, 1, 1, 0, 1, 1, 1
| 1, 1, 0, 1, 1, 1, 1, 1, 0, 1, 1, 1, 1, 1, 0, 1, 1, 0, 0, 0, 0, 0, 0, 1, 1, 1, 0, 1, 1, 1, 1, 1, 0, 1, 1
| 1, 1, 1, 0, 1, 1, 1, 1, 1, 0, 1, 1, 1, 1, 1, 0, 1, 0, 0, 0, 0, 0, 0, 1, 1, 1, 1, 0, 1, 1, 1, 1, 1, 0, 1
| 1, 1, 1, 1, 0, 1, 1, 1, 1, 1, 0, 1, 1, 1, 1, 1, 0, 0, 0, 0, 0, 0, 0, 1, 1, 1, 1, 1, 0, 1, 1, 1, 1, 1, 0
| 1, 1, 1, 1, 1, 1, 1, 1, 1, 1, 1, 1, 1, 1, 1, 1, 1, 1, 1, 1, 1, 1, 1, 0, 0, 0, 0, 0, 0, 1, 1, 1, 1, 1, 1
| 0, 1, 1, 1, 1, 1, 0, 1, 1, 1, 1, 1, 0, 1, 1, 1, 1, 1, 0, 1, 1, 1, 1, 0, 0, 0, 0, 0, 0, 1, 0, 1, 1, 1, 1
| 1, 0, 1, 1, 1, 1, 1, 0, 1, 1, 1, 1, 1, 0, 1, 1, 1, 1, 1, 0, 1, 1, 1, 0, 0, 0, 0, 0, 0, 1, 1, 0, 1, 1, 1
| 1, 1, 0, 1, 1, 1, 1, 1, 0, 1, 1, 1, 1, 1, 0, 1, 1, 1, 1, 1, 0, 1, 1, 0, 0, 0, 0, 0, 0, 1, 1, 1, 0, 1, 1
| 1, 1, 1, 0, 1, 1, 1, 1, 1, 0, 1, 1, 1, 1, 1, 0, 1, 1, 1, 1, 1, 0, 1, 0, 0, 0, 0, 0, 0, 1, 1, 1, 1, 0, 1
| 1, 1, 1, 1, 0, 1, 1, 1, 1, 1, 0, 1, 1, 1, 1, 1, 0, 1, 1, 1, 1, 1, 0, 0, 0, 0, 0, 0, 0, 1, 1, 1, 1, 1, 0
| 1, 1, 1, 1, 1, 1, 1, 1, 1, 1, 1, 1, 1, 1, 1, 1, 1, 1, 1, 1, 1, 1, 1, 1, 1, 1, 1, 1, 1, 0, 0, 0, 0, 0, 0
| 0, 1, 1, 1, 1, 1, 0, 1, 1, 1, 1, 1, 0, 1, 1, 1, 1, 1, 0, 1, 1, 1, 1, 1, 0, 1, 1, 1, 1, 0, 0, 0, 0, 0, 0
| 1, 0, 1, 1, 1, 1, 1, 0, 1, 1, 1, 1, 1, 0, 1, 1, 1, 1, 1, 0, 1, 1, 1, 1, 1, 0, 1, 1, 1, 0, 0, 0, 0, 0, 0
| 1, 1, 0, 1, 1, 1, 1, 1, 0, 1, 1, 1, 1, 1, 0, 1, 1, 1, 1, 1, 0, 1, 1, 1, 1, 1, 0, 1, 1, 0, 0, 0, 0, 0, 0
| 1, 1, 1, 0, 1, 1, 1, 1, 1, 0, 1, 1, 1, 1, 1, 0, 1, 1, 1, 1, 1, 0, 1, 1, 1, 1, 1, 0, 1, 0, 0, 0, 0, 0, 0
| 1, 1, 1, 1, 0, 1, 1, 1, 1, 1, 0, 1, 1, 1, 1, 1, 0, 1, 1, 1, 1, 1, 0, 1, 1, 1, 1, 1, 0, 0, 0, 0, 0, 0, 0 |];
